(set-logic ALL)
(declare-const input_number_VAR Int)
(assert (not (< input_number_VAR 0)))
(assert (< 1 input_number_VAR))
(assert (< 2 input_number_VAR))
(assert (< 3 input_number_VAR))
(assert (< 4 input_number_VAR))
(assert (< 5 input_number_VAR))
(assert (< 6 input_number_VAR))
(assert (< 7 input_number_VAR))
(assert (< 8 input_number_VAR))
(assert (< 9 input_number_VAR))
(assert (< 10 input_number_VAR))
(assert (< 11 input_number_VAR))
(assert (< 12 input_number_VAR))
(assert (< 13 input_number_VAR))
(assert (< 14 input_number_VAR))
(assert (< 15 input_number_VAR))
(assert (< 16 input_number_VAR))
(assert (< 17 input_number_VAR))
(assert (< 18 input_number_VAR))
(assert (< 19 input_number_VAR))
(assert (< 20 input_number_VAR))
(assert (< 21 input_number_VAR))
(assert (< 22 input_number_VAR))
(assert (< 23 input_number_VAR))
(assert (< 24 input_number_VAR))
(assert (< 25 input_number_VAR))
(assert (< 26 input_number_VAR))
(assert (< 27 input_number_VAR))
(assert (< 28 input_number_VAR))
(assert (< 29 input_number_VAR))
(assert (< 30 input_number_VAR))
(assert (< 31 input_number_VAR))
(assert (< 32 input_number_VAR))
(assert (< 33 input_number_VAR))
(assert (< 34 input_number_VAR))
(assert (< 35 input_number_VAR))
(assert (< 36 input_number_VAR))
(assert (< 37 input_number_VAR))
(assert (< 38 input_number_VAR))
(assert (< 39 input_number_VAR))
(assert (< 40 input_number_VAR))
(assert (< 41 input_number_VAR))
(assert (< 42 input_number_VAR))
(assert (< 43 input_number_VAR))
(assert (< 44 input_number_VAR))
(assert (< 45 input_number_VAR))
(assert (< 46 input_number_VAR))
(assert (< 47 input_number_VAR))
(assert (< 48 input_number_VAR))
(assert (< 49 input_number_VAR))
(assert (< 50 input_number_VAR))
(assert (< 51 input_number_VAR))
(assert (< 52 input_number_VAR))
(assert (< 53 input_number_VAR))
(assert (< 54 input_number_VAR))
(assert (< 55 input_number_VAR))
(assert (< 56 input_number_VAR))
(assert (< 57 input_number_VAR))
(assert (< 58 input_number_VAR))
(assert (< 59 input_number_VAR))
(assert (< 60 input_number_VAR))
(assert (< 61 input_number_VAR))
(assert (< 62 input_number_VAR))
(assert (< 63 input_number_VAR))
(assert (< 64 input_number_VAR))
(assert (< 65 input_number_VAR))
(assert (< 66 input_number_VAR))
(assert (< 67 input_number_VAR))
(assert (< 68 input_number_VAR))
(assert (< 69 input_number_VAR))
(assert (< 70 input_number_VAR))
(assert (< 71 input_number_VAR))
(assert (< 72 input_number_VAR))
(assert (< 73 input_number_VAR))
(assert (< 74 input_number_VAR))
(assert (< 75 input_number_VAR))
(assert (< 76 input_number_VAR))
(assert (< 77 input_number_VAR))
(assert (< 78 input_number_VAR))
(assert (< 79 input_number_VAR))
(assert (< 80 input_number_VAR))
(assert (< 81 input_number_VAR))
(assert (< 82 input_number_VAR))
(assert (< 83 input_number_VAR))
(assert (< 84 input_number_VAR))
(assert (< 85 input_number_VAR))
(assert (< 86 input_number_VAR))
(assert (< 87 input_number_VAR))
(assert (< 88 input_number_VAR))
(assert (< 89 input_number_VAR))
(assert (< 90 input_number_VAR))
(assert (< 91 input_number_VAR))
(assert (< 92 input_number_VAR))
(assert (< 93 input_number_VAR))
(assert (< 94 input_number_VAR))
(assert (< 95 input_number_VAR))
(assert (< 96 input_number_VAR))
(assert (< 97 input_number_VAR))
(assert (< 98 input_number_VAR))
(assert (< 99 input_number_VAR))
(assert (< 100 input_number_VAR))
(assert (< 101 input_number_VAR))
(assert (< 102 input_number_VAR))
(assert (< 103 input_number_VAR))
(assert (< 104 input_number_VAR))
(assert (< 105 input_number_VAR))
(assert (< 106 input_number_VAR))
(assert (< 107 input_number_VAR))
(assert (< 108 input_number_VAR))
(assert (< 109 input_number_VAR))
(assert (< 110 input_number_VAR))
(assert (< 111 input_number_VAR))
(assert (< 112 input_number_VAR))
(assert (< 113 input_number_VAR))
(assert (< 114 input_number_VAR))
(assert (< 115 input_number_VAR))
(assert (< 116 input_number_VAR))
(assert (< 117 input_number_VAR))
(assert (< 118 input_number_VAR))
(assert (< 119 input_number_VAR))
(assert (< 120 input_number_VAR))
(assert (< 121 input_number_VAR))
(assert (< 122 input_number_VAR))
(assert (< 123 input_number_VAR))
(assert (< 124 input_number_VAR))
(assert (< 125 input_number_VAR))
(assert (< 126 input_number_VAR))
(assert (< 127 input_number_VAR))
(assert (< 128 input_number_VAR))
(assert (< 129 input_number_VAR))
(assert (< 130 input_number_VAR))
(assert (< 131 input_number_VAR))
(assert (< 132 input_number_VAR))
(assert (< 133 input_number_VAR))
(assert (< 134 input_number_VAR))
(assert (< 135 input_number_VAR))
(assert (< 136 input_number_VAR))
(assert (< 137 input_number_VAR))
(assert (< 138 input_number_VAR))
(assert (< 139 input_number_VAR))
(assert (< 140 input_number_VAR))
(assert (< 141 input_number_VAR))
(assert (< 142 input_number_VAR))
(assert (< 143 input_number_VAR))
(assert (< 144 input_number_VAR))
(assert (< 145 input_number_VAR))
(assert (< 146 input_number_VAR))
(assert (< 147 input_number_VAR))
(assert (< 148 input_number_VAR))
(assert (< 149 input_number_VAR))
(assert (< 150 input_number_VAR))
(assert (< 151 input_number_VAR))
(assert (< 152 input_number_VAR))
(assert (< 153 input_number_VAR))
(assert (< 154 input_number_VAR))
(assert (< 155 input_number_VAR))
(assert (< 156 input_number_VAR))
(assert (< 157 input_number_VAR))
(assert (< 158 input_number_VAR))
(assert (< 159 input_number_VAR))
(assert (< 160 input_number_VAR))
(assert (< 161 input_number_VAR))
(assert (< 162 input_number_VAR))
(assert (< 163 input_number_VAR))
(assert (< 164 input_number_VAR))
(assert (< 165 input_number_VAR))
(assert (< 166 input_number_VAR))
(assert (< 167 input_number_VAR))
(assert (< 168 input_number_VAR))
(assert (< 169 input_number_VAR))
(assert (< 170 input_number_VAR))
(assert (< 171 input_number_VAR))
(assert (< 172 input_number_VAR))
(assert (< 173 input_number_VAR))
(assert (< 174 input_number_VAR))
(assert (< 175 input_number_VAR))
(assert (< 176 input_number_VAR))
(assert (< 177 input_number_VAR))
(assert (< 178 input_number_VAR))
(assert (< 179 input_number_VAR))
(assert (< 180 input_number_VAR))
(assert (< 181 input_number_VAR))
(assert (< 182 input_number_VAR))
(assert (< 183 input_number_VAR))
(assert (< 184 input_number_VAR))
(assert (< 185 input_number_VAR))
(assert (< 186 input_number_VAR))
(assert (< 187 input_number_VAR))
(assert (< 188 input_number_VAR))
(assert (< 189 input_number_VAR))
(assert (< 190 input_number_VAR))
(assert (< 191 input_number_VAR))
(assert (< 192 input_number_VAR))
(assert (< 193 input_number_VAR))
(assert (< 194 input_number_VAR))
(assert (< 195 input_number_VAR))
(assert (< 196 input_number_VAR))
(assert (< 197 input_number_VAR))
(assert (< 198 input_number_VAR))
(assert (< 199 input_number_VAR))
(assert (< 200 input_number_VAR))
(assert (< 201 input_number_VAR))
(assert (< 202 input_number_VAR))
(assert (< 203 input_number_VAR))
(assert (< 204 input_number_VAR))
(assert (< 205 input_number_VAR))
(assert (< 206 input_number_VAR))
(assert (< 207 input_number_VAR))
(assert (< 208 input_number_VAR))
(assert (< 209 input_number_VAR))
(assert (< 210 input_number_VAR))
(assert (< 211 input_number_VAR))
(assert (< 212 input_number_VAR))
(assert (< 213 input_number_VAR))
(assert (< 214 input_number_VAR))
(assert (< 215 input_number_VAR))
(assert (< 216 input_number_VAR))
(assert (< 217 input_number_VAR))
(assert (< 218 input_number_VAR))
(assert (< 219 input_number_VAR))
(assert (< 220 input_number_VAR))
(assert (< 221 input_number_VAR))
(assert (< 222 input_number_VAR))
(assert (< 223 input_number_VAR))
(assert (< 224 input_number_VAR))
(assert (< 225 input_number_VAR))
(assert (< 226 input_number_VAR))
(assert (< 227 input_number_VAR))
(assert (< 228 input_number_VAR))
(assert (< 229 input_number_VAR))
(assert (< 230 input_number_VAR))
(assert (< 231 input_number_VAR))
(assert (< 232 input_number_VAR))
(assert (< 233 input_number_VAR))
(assert (< 234 input_number_VAR))
(assert (< 235 input_number_VAR))
(assert (< 236 input_number_VAR))
(assert (< 237 input_number_VAR))
(assert (< 238 input_number_VAR))
(assert (< 239 input_number_VAR))
(assert (< 240 input_number_VAR))
(assert (< 241 input_number_VAR))
(assert (< 242 input_number_VAR))
(assert (< 243 input_number_VAR))
(assert (< 244 input_number_VAR))
(assert (< 245 input_number_VAR))
(assert (< 246 input_number_VAR))
(assert (< 247 input_number_VAR))
(assert (< 248 input_number_VAR))
(assert (< 249 input_number_VAR))
(assert (< 250 input_number_VAR))
(assert (< 251 input_number_VAR))
(assert (< 252 input_number_VAR))
(assert (< 253 input_number_VAR))
(assert (< 254 input_number_VAR))
(assert (< 255 input_number_VAR))
(assert (< 256 input_number_VAR))
(assert (< 257 input_number_VAR))
(assert (< 258 input_number_VAR))
(assert (< 259 input_number_VAR))
(assert (< 260 input_number_VAR))
(assert (< 261 input_number_VAR))
(assert (< 262 input_number_VAR))
(assert (< 263 input_number_VAR))
(assert (< 264 input_number_VAR))
(assert (< 265 input_number_VAR))
(assert (< 266 input_number_VAR))
(assert (< 267 input_number_VAR))
(assert (< 268 input_number_VAR))
(assert (< 269 input_number_VAR))
(assert (< 270 input_number_VAR))
(assert (< 271 input_number_VAR))
(assert (< 272 input_number_VAR))
(assert (< 273 input_number_VAR))
(assert (< 274 input_number_VAR))
(assert (< 275 input_number_VAR))
(assert (< 276 input_number_VAR))
(assert (< 277 input_number_VAR))
(assert (< 278 input_number_VAR))
(assert (< 279 input_number_VAR))
(assert (< 280 input_number_VAR))
(assert (< 281 input_number_VAR))
(assert (< 282 input_number_VAR))
(assert (< 283 input_number_VAR))
(assert (< 284 input_number_VAR))
(assert (< 285 input_number_VAR))
(assert (< 286 input_number_VAR))
(assert (< 287 input_number_VAR))
(assert (< 288 input_number_VAR))
(assert (< 289 input_number_VAR))
(assert (< 290 input_number_VAR))
(assert (< 291 input_number_VAR))
(assert (< 292 input_number_VAR))
(assert (< 293 input_number_VAR))
(assert (< 294 input_number_VAR))
(assert (< 295 input_number_VAR))
(assert (< 296 input_number_VAR))
(assert (< 297 input_number_VAR))
(assert (< 298 input_number_VAR))
(assert (< 299 input_number_VAR))
(assert (< 300 input_number_VAR))
(assert (< 301 input_number_VAR))
(assert (< 302 input_number_VAR))
(assert (< 303 input_number_VAR))
(assert (< 304 input_number_VAR))
(assert (< 305 input_number_VAR))
(assert (< 306 input_number_VAR))
(assert (< 307 input_number_VAR))
(assert (< 308 input_number_VAR))
(assert (< 309 input_number_VAR))
(assert (< 310 input_number_VAR))
(assert (< 311 input_number_VAR))
(assert (< 312 input_number_VAR))
(assert (< 313 input_number_VAR))
(assert (< 314 input_number_VAR))
(assert (< 315 input_number_VAR))
(assert (< 316 input_number_VAR))
(assert (< 317 input_number_VAR))
(assert (< 318 input_number_VAR))
(assert (< 319 input_number_VAR))
(assert (< 320 input_number_VAR))
(assert (< 321 input_number_VAR))
(assert (< 322 input_number_VAR))
(assert (< 323 input_number_VAR))
(assert (< 324 input_number_VAR))
(assert (< 325 input_number_VAR))
(assert (< 326 input_number_VAR))
(assert (< 327 input_number_VAR))
(assert (< 328 input_number_VAR))
(assert (< 329 input_number_VAR))
(assert (< 330 input_number_VAR))
(assert (< 331 input_number_VAR))
(assert (< 332 input_number_VAR))
(assert (< 333 input_number_VAR))
(assert (< 334 input_number_VAR))
(check-sat)
(get-value (input_number_VAR))
